p cnf 16 44
1 2 3 4 0
5 6 7 8 0
9 10 11 12 0
13 14 15 16 0
-4 -3 0
-4 -2 0
-4 -1 0
-3 -2 0
-3 -1 0
-2 -1 0
-8 -7 0
-8 -6 0
-8 -5 0
-7 -6 0
-7 -5 0
-6 -5 0
-12 -11 0
-12 -10 0
-12 -9 0
-11 -10 0
-11 -9 0
-10 -9 0
-16 -15 0
-16 -14 0
-16 -13 0
-15 -14 0
-15 -13 0
-14 -13 0
-4 -8 0
-3 -7 0
-2 -6 0
-1 -5 0
-4 -16 0
-3 -15 0
-2 -14 0
-1 -13 0
-8 -12 0
-7 -11 0
-6 -10 0
-5 -9 0
-12 -16 0
-11 -15 0
-10 -14 0
-9 -13 0
